p edge 20 120
e 1 3
e 1 5
e 1 10
e 1 11
e 1 13
e 1 16
e 2 1
e 2 8
e 2 11
e 2 11
e 2 12
e 2 17
e 3 2
e 3 4
e 3 7
e 3 14
e 3 17
e 3 17
e 4 13
e 4 14
e 4 14
e 4 18
e 4 18
e 4 18
e 5 1
e 5 3
e 5 6
e 5 7
e 5 8
e 5 9
e 6 5
e 6 11
e 6 13
e 6 15
e 6 16
e 6 17
e 7 1
e 7 4
e 7 6
e 7 10
e 7 16
e 7 20
e 8 3
e 8 4
e 8 4
e 8 6
e 8 7
e 8 9
e 9 2
e 9 7
e 9 12
e 9 17
e 9 17
e 9 18
e 10 4
e 10 6
e 10 6
e 10 11
e 10 11
e 10 18
e 11 3
e 11 5
e 11 10
e 11 18
e 11 18
e 11 19
e 12 5
e 12 6
e 12 10
e 12 14
e 12 20
e 12 20
e 13 1
e 13 2
e 13 3
e 13 4
e 13 12
e 13 18
e 14 1
e 14 4
e 14 6
e 14 11
e 14 17
e 14 18
e 15 2
e 15 2
e 15 6
e 15 10
e 15 10
e 15 16
e 16 9
e 16 15
e 16 19
e 16 19
e 16 19
e 16 20
e 17 3
e 17 9
e 17 10
e 17 18
e 17 18
e 17 18
e 18 3
e 18 3
e 18 4
e 18 7
e 18 8
e 18 12
e 19 4
e 19 6
e 19 9
e 19 10
e 19 15
e 19 18
e 20 6
e 20 7
e 20 7
e 20 11
e 20 13
e 20 15
